NAME: ../File/prFile/tspFile/tsp_file23.tsp
COMMENT: TSP file generated by Python
TYPE: TSP
DIMENSION: 30
EDGE_WEIGHT_TYPE: EUC_2D
NODE_COORD_SECTION
1 48 93
2 93 47
3 25 22
4 46 28
5 76 18
6 45 54
7 94 88
8 44 46
9 47 33
10 27 26
11 38 11
12 52 92
13 90 90
14 13 67
15 45 96
16 78 47
17 16 48
18 31 83
19 27 99
20 46 60
21 27 33
22 1 73
23 5 46
24 69 1
25 99 3
26 13 46
27 90 98
28 25 94
29 7 89
30 34 42
EOF
